c generated by ere2max.py
c max 6 7 8 9 10 0
c ind 1 2 3 4 5 0
p cnf 10 110
-1 2 3 4 6 -7 8 9 -10 0
1 -2 -3 4 5 -6 7 8 10 0
-1 -2 -3 -5 -6 -7 -8 -9 -10 0
-1 2 3 -5 -6 -7 8 9 -10 0
-1 -3 4 -5 6 -7 -8 -9 10 0
1 2 -3 4 -5 7 8 -9 -10 0
1 -2 3 -4 5 6 -7 8 9 0
-2 -3 4 -5 -6 -7 -8 -9 10 0
-1 2 -3 4 5 6 7 -8 -9 0
-1 2 -3 -4 -5 -6 7 9 10 0
1 -2 -3 4 5 -7 8 9 10 0
1 -2 3 4 5 -6 7 -8 -9 0
1 2 3 4 -5 6 -8 -9 10 0
1 -2 -3 4 5 -6 7 8 9 0
1 -2 -4 5 -6 -7 8 -9 10 0
-1 -2 -3 -4 -5 6 -7 8 10 0
-1 -2 3 -4 -6 -7 -8 9 10 0
1 -2 3 4 -5 -6 -7 8 -10 0
1 -2 3 5 -6 7 8 -9 10 0
1 2 -3 -4 -5 -6 -7 8 -9 0
1 3 4 -5 6 7 8 -9 -10 0
1 -2 3 4 -5 6 7 -8 -10 0
-1 2 3 4 5 -6 -7 9 10 0
-1 3 -4 -5 6 -7 -8 9 -10 0
-2 -3 -4 5 -6 7 -8 -9 -10 0
1 2 -3 4 -5 -6 -7 -8 -9 0
-1 2 3 4 -5 -7 8 -9 10 0
-2 3 -4 -5 6 -7 -8 -9 -10 0
-1 2 3 -4 5 6 -7 8 9 0
-1 3 -4 5 6 7 8 -9 -10 0
-1 2 3 4 -5 7 -8 9 10 0
1 2 -3 4 5 -6 -7 -8 9 0
-1 2 3 -4 -5 -6 7 -8 10 0
-1 2 -3 -4 -6 7 -8 9 -10 0
1 3 -4 -5 -6 7 8 9 10 0
-1 2 3 4 5 6 7 -8 9 0
1 -2 3 -4 -5 -6 -8 9 10 0
1 2 3 4 5 -6 -7 -8 -9 0
-1 -2 -3 -4 5 6 7 -8 -9 0
-1 -2 -3 4 -5 6 7 9 10 0
-1 2 4 -5 -6 -7 8 9 -10 0
-1 -2 3 -5 -6 -7 8 -9 -10 0
1 2 4 -5 -6 -7 8 -9 -10 0
-1 -2 3 4 5 -6 -8 9 10 0
1 2 -3 -4 5 -7 8 -9 -10 0
-1 2 -3 4 5 6 7 9 -10 0
-2 -3 4 -5 -6 7 -8 -9 10 0
-1 2 -3 -4 -5 -6 -8 -9 -10 0
1 2 -3 4 5 6 7 8 10 0
1 -2 3 -5 -6 7 -8 9 10 0
1 -2 -3 4 6 7 -8 -9 -10 0
1 -2 -3 -4 -5 -6 -7 8 -10 0
1 2 -4 5 6 -7 8 9 10 0
-1 2 3 -4 6 -7 8 -9 10 0
-1 -2 -3 4 -5 -6 7 -9 10 0
-1 2 3 4 -5 6 -7 -8 9 0
-1 2 -3 -4 5 6 7 8 -9 0
1 2 3 -5 -6 -7 -8 9 10 0
1 2 -3 -4 -5 7 -8 -9 10 0
1 2 -4 5 -6 -7 8 9 10 0
-1 2 4 -5 -6 -7 -8 9 10 0
1 -2 3 5 -6 7 -8 -9 -10 0
1 2 -3 -5 6 -7 8 -9 -10 0
-1 2 -3 4 -5 -6 7 -9 10 0
-1 -2 3 5 -6 -7 8 9 -10 0
-1 2 -3 -4 -6 7 8 -9 -10 0
1 -2 -3 -4 -5 -6 7 -8 10 0
1 -3 -4 5 -6 7 8 -9 10 0
1 2 3 -4 -5 -6 -7 -8 9 0
1 2 3 -4 -6 7 -8 -9 10 0
-1 2 3 -4 5 6 -7 -9 -10 0
1 -2 3 -4 -5 -6 7 -8 9 0
-2 3 -4 -5 -6 7 -8 -9 10 0
-1 -2 -3 -5 -6 7 8 9 -10 0
-1 2 -3 4 5 -6 7 -8 -10 0
1 2 -3 -5 6 7 -8 9 10 0
1 2 3 -4 -6 7 8 -9 10 0
-1 2 3 4 5 7 8 -9 10 0
1 -2 -3 -4 5 -6 7 9 -10 0
-1 -2 -3 4 5 -6 -8 9 -10 0
-1 -2 -3 4 5 -7 -8 9 -10 0
-1 -2 3 4 5 6 -7 -8 9 0
2 -3 4 -5 -6 -7 -8 9 10 0
-1 -2 3 4 -5 -6 8 -9 10 0
1 -2 -4 -5 6 -7 8 9 -10 0
-1 -2 -3 -4 5 6 -7 -9 10 0
-1 2 -3 -4 -5 6 7 -9 -10 0
-1 -2 3 -4 5 -6 -8 9 -10 0
-1 -2 3 -5 6 7 -8 9 -10 0
1 2 3 4 -5 6 -7 8 10 0
-1 -2 3 4 5 -6 8 -9 10 0
-1 2 -3 -4 -5 -6 -8 -9 10 0
1 2 3 -4 -5 6 -7 8 -9 0
1 3 -4 -5 6 -7 -8 -9 -10 0
-2 -3 4 -5 -6 7 8 9 10 0
1 3 4 -5 6 -7 8 9 10 0
1 -3 -4 5 -6 -7 8 9 -10 0
-1 -2 3 -4 -5 -7 -8 9 -10 0
-1 -3 4 5 -6 7 -8 9 -10 0
1 -2 3 4 5 7 8 9 -10 0
-1 2 -3 4 6 -7 -8 9 -10 0
-1 3 -4 -5 6 7 8 9 10 0
1 -3 -4 5 6 7 -8 9 -10 0
-1 -2 4 -5 -6 -7 8 9 -10 0
-1 2 3 -4 6 7 -8 -9 10 0
-1 2 -3 4 -5 -6 7 -9 -10 0
-1 2 -3 4 -5 7 8 9 -10 0
1 3 4 5 6 -7 -8 -9 -10 0
1 -2 3 -5 -6 -7 8 -9 -10 0
1 -3 4 -5 -6 7 8 -9 10 0
